CMD:
./solvers/bin/cadical --plain --no-reduce -t 1600 ./data/cnfs//6s325rb072/6s325rb072.95.cnf

c --- [ banner ] -------------------------------------------------------------
c 
c CaDiCaL SAT Solver
c Copyright (c) 2016-2024
c A. Biere, M. Fleury, N. Froleyks, K. Fazekas, F. Pollitt, T. Faller
c JKU Linz, University of Freiburg, TU Wien
c 
c Version 2.1.3 5296d3d2a9bf48c154ab2acb5e44625776d821bf
c g++ (Gentoo 12.3.1_p20230526 p2) 12.3.1 20230526 -Wall -Wextra -O3 -DNDEBUG
c Sat Aug 9 07:26:21 PDT 2025 Linux cedar2.int.cedar.computecanada.ca 5.14.0-362.24.2.el9_3.x86_64 x86_64
c 
c --- [ limit ] --------------------------------------------------------------
c 
c setting time limit to 1600 seconds real time (due to '-t 1600')
c 
c --- [ parsing input ] ------------------------------------------------------
c 
c reading DIMACS file from './data/cnfs//6s325rb072/6s325rb072.95.cnf'
c opening file to read './data/cnfs//6s325rb072/6s325rb072.95.cnf'
c found 'p cnf 1122195 3055228' header
c parsed 3055228 clauses in 0.57 seconds process time
c 
c --- [ options ] ------------------------------------------------------------
c 
c   --compact=false                (different from default 'true')
c   --decompose=false              (different from default 'true')
c   --deduplicate=false            (different from default 'true')
c   --elim=false                   (different from default 'true')
c   --probe=false                  (different from default 'true')
c   --reduce=false                 (different from default 'true')
c   --subsume=false                (different from default 'true')
c   --ternary=false                (different from default 'true')
c   --transred=false               (different from default 'true')
c   --vivify=false                 (different from default 'true')
c 
c --- [ solving ] ------------------------------------------------------------
c 
c time measured in process time since initialization
c 
c  seconds   reductions  redundant   irredundant
c          MB    restarts       trail         variables
c           level   conflicts       glue            remaining
c 
c *  0.57 483  0 0   0    0    0  0% 0 3023991 1093434 97%
c {  0.78 496  0 0   0    0    0  0% 0 3023991 1093434 97%
c i  0.85 496 615 0   0  217    7  3% 1 3023991 1093432 97%
c i  0.85 496 573 0   0  218    7  3% 1 3023991 1093428 97%
c i  0.85 496 509 0   0  220    7  3% 1 3023991 1093426 97%
c i  0.85 496 484 0   0  221    7  3% 1 3023991 1093422 97%
c i  0.86 496 444 0   0  223    7  3% 1 3023991 1093419 97%
c i  0.86 496 428 0   0  224    7  3% 1 3023991 1093418 97%
c i  0.86 496 414 0   0  225    7  3% 1 3023991 1093414 97%
c i  0.86 496 390 0   0  227    7  4% 1 3023991 1093412 97%
c i  0.86 496 380 0   0  228    7  4% 0 3023991 1093410 97%
c i  0.86 496 371 0   0  229    7  4% 0 3023991 1093409 97%
c i  0.86 496 362 0   0  230    7  4% 0 3023991 1093405 97%
c i  0.90 497 186 0   0  319   95  5% 35 3023991 1093404 97%
c i  0.93 498 171 0   0  415  189  5% 19 3023991 1093402 97%
c i  0.93 498 177 0   0  418  191  5% 19 3023991 1093401 97%
c i  0.94 498 207 0   0  440  210  6% 17 3023991 1093399 97%
c i  0.94 498 208 0   0  441  210  6% 17 3023991 1093398 97%
c i  1.58 500 254 0   0  887  648 15% 7 3023991 1093393 97%
c i  1.60 500 251 0   0  896  656 15% 7 3023991 1093392 97%
c 
c  seconds    reductions  redundant   irredundant
c          MB     restarts       trail         variables
c            level   conflicts       glue            remaining
c 
c i  1.60 500 251 0   0  897  656 15% 7 3023991 1093388 97%
c i  1.61 501 251 0   0  898  656 15% 7 3023991 1093387 97%
c i  1.62 501 253 0   0  911  666 15% 7 3023991 1093385 97%
c }  1.65 503 267 0   0 1003  755 15% 10 3023991 1093385 97%
c [  1.65 503  0 0   0 1003  755  0% 0 3023991 1093385 97%
c O  1.86 504 16539 0   0 1004  756 99% 1 3023991 1093385 97%
c ]  4.32 505 14421 0   1 3004 2505 84% 6 3023991 1093385 97%
c {  4.32 505 267 0   1 3004 2505 15% 10 3023991 1093385 97%
c F  4.36 505 267 0   2 3005 2506 15% 10 3023991 1093385 97%
c #  7.01 507 156 0  63 6006 5138 18% 6 3023991 1093385 97%
c i  7.41 507 149 0  63 6366 5453 19% 6 3023991 1093383 97%
c }  7.96 508 142 0  69 7005 6037 19% 6 3023991 1093383 97%
c [  7.96 508 14421 0  69 7005 6037 84% 6 3023991 1093383 97%
c I 13.60 508 5955 0  71 10008 8528 48% 7 3023991 1093383 97%
c ] 21.38 509 2976 0  74 15005 12615 35% 10 3023991 1093383 97%
c { 21.38 509 142 0  74 15005 12615 19% 6 3023991 1093383 97%
c B 21.40 509 142 0  74 15009 12619 19% 6 3023991 1093383 97%
c i 23.99 509 119 0 124 16399 13792 17% 6 3023991 1093381 97%
c i 27.67 510 97 0 176 18745 15812 15% 5 3023991 1093377 97%
c i 28.49 510 98 0 176 18979 16010 16% 5 3023991 1092904 97%
c 
c  seconds   reductions    redundant   irredundant
c          MB    restarts         trail         variables
c           level    conflicts        glue            remaining
c 
c i 28.50 510 98 0 176 19014 16032 16% 5 3023991 1092896 97%
c i 28.56 510 96 0 176 19174 16133 16% 5 3023991 1092427 97%
c i 28.58 510 95 0 176 19204 16142 16% 5 3023991 1092400 97%
c i 28.59 510 95 0 176 19254 16183 16% 5 3023991 1090996 97%
c i 28.59 510 95 0 176 19267 16191 16% 5 3023991 1090990 97%
c } 28.59 510 95 0 176 19279 16194 16% 5 3023991 1090924 97%
c 0 28.59 510 95 0 176 19279 16194 16% 5 3023991 1090924 97%
c 
c --- [ result ] -------------------------------------------------------------
c 
s UNSATISFIABLE
c 
c --- [ run-time profiling ] -------------------------------------------------
c 
c process time taken by individual solving procedures
c (percentage relative to process time for solving)
c 
c        28.02  100.00% search
c        16.10   57.44% stable
c        11.72   41.82% unstable
c         0.57    2.04% parse
c         0.21    0.73% lucky
c         0.00    0.00% simplify
c   =================================
c        28.02   98.00% solve
c 
c last line shows process time for solving
c (percentage relative to total process time)
c 
c --- [ statistics ] ---------------------------------------------------------
c 
c chronological:              6317        32.77 %  of conflicts
c conflicts:                 19279       687.98    per second
c decisions:                 90454      3227.91    per second
c fixed:                     24240         2.16 %  of all variables
c learned:                   18373        95.30 %  per conflict
c learned_lits:             394514       100.00 %  learned literals
c minimized:                     0         0.00 %  learned literals
c shrunken:                  70804        17.95 %  learned literals
c minishrunken:              58692        14.88 %  learned literals
c otfs:                        423         2.19 %  of conflict
c propagations:          240811779         8.59 M  per second
c rephased:                      5      3855.80    interval
c restarts:                    176       109.54    interval
c stabilizing:                   2        51.84 %  of conflicts
c subsumed:                   2160         0.07 %  of all clauses
c strengthened:                406         0.01 %  of all clauses
c 
c seconds are measured in process time for solving
c 
c --- [ resources ] ----------------------------------------------------------
c 
c total process time since initialization:        28.59    seconds
c total real time since initialization:           28.80    seconds
c maximum resident set size of process:          508.92    MB
c 
c --- [ shutting down ] ------------------------------------------------------
c 
c exit 20
